p edge 2450 2380
e 1 2
e 1 3
e 1 4
e 1 5
e 1 6
e 1 7
e 1 8
e 1 9
e 1 10
e 1 11
e 1 12
e 1 13
e 1 14
e 1 15
e 1 16
e 1 17
e 1 18
e 1 19
e 1 20
e 1 21
e 1 22
e 1 23
e 24 25
e 24 26
e 24 27
e 24 28
e 24 29
e 24 30
e 24 31
e 24 32
e 24 33
e 24 34
e 24 35
e 24 36
e 24 37
e 24 38
e 24 39
e 24 40
e 24 41
e 24 42
e 24 43
e 24 44
e 24 45
e 24 46
e 24 47
e 24 48
e 24 49
e 24 50
e 51 52
e 51 53
e 51 54
e 51 55
e 51 56
e 51 57
e 51 58
e 51 59
e 51 60
e 51 61
e 51 62
e 51 63
e 51 64
e 51 65
e 51 66
e 51 67
e 51 68
e 51 69
e 51 70
e 51 71
e 51 72
e 51 73
e 51 74
e 51 75
e 51 76
e 51 77
e 51 78
e 51 79
e 80 81
e 80 82
e 80 83
e 80 84
e 80 85
e 80 86
e 80 87
e 80 88
e 80 89
e 80 90
e 80 91
e 80 92
e 80 93
e 80 94
e 80 95
e 80 96
e 80 97
e 80 98
e 80 99
e 80 100
e 80 101
e 80 102
e 80 103
e 80 104
e 80 105
e 80 106
e 80 107
e 80 108
e 80 109
e 80 110
e 80 111
e 80 112
e 80 113
e 80 114
e 80 115
e 80 116
e 80 117
e 80 118
e 80 119
e 80 120
e 80 121
e 80 122
e 80 123
e 80 124
e 80 125
e 80 126
e 80 127
e 80 128
e 80 129
e 80 130
e 131 132
e 131 133
e 131 134
e 131 135
e 131 136
e 131 137
e 131 138
e 131 139
e 131 140
e 131 141
e 131 142
e 131 143
e 131 144
e 131 145
e 131 146
e 131 147
e 131 148
e 131 149
e 131 150
e 131 151
e 131 152
e 131 153
e 131 154
e 131 155
e 131 156
e 131 157
e 131 158
e 131 159
e 131 160
e 131 161
e 131 162
e 131 163
e 131 164
e 131 165
e 131 166
e 131 167
e 131 168
e 131 169
e 131 170
e 131 171
e 131 172
e 131 173
e 174 175
e 174 176
e 174 177
e 174 178
e 174 179
e 174 180
e 174 181
e 174 182
e 174 183
e 174 184
e 174 185
e 174 186
e 174 187
e 174 188
e 174 189
e 174 190
e 191 192
e 191 193
e 191 194
e 191 195
e 191 196
e 191 197
e 191 198
e 191 199
e 191 200
e 191 201
e 191 202
e 191 203
e 191 204
e 191 205
e 191 206
e 191 207
e 191 208
e 191 209
e 191 210
e 191 211
e 191 212
e 191 213
e 191 214
e 191 215
e 191 216
e 191 217
e 191 218
e 191 219
e 191 220
e 191 221
e 191 222
e 191 223
e 191 224
e 225 226
e 225 227
e 225 228
e 225 229
e 225 230
e 225 231
e 225 232
e 225 233
e 225 234
e 225 235
e 225 236
e 225 237
e 225 238
e 225 239
e 225 240
e 225 241
e 225 242
e 225 243
e 225 244
e 225 245
e 225 246
e 225 247
e 225 248
e 225 249
e 225 250
e 225 251
e 225 252
e 225 253
e 225 254
e 225 255
e 225 256
e 225 257
e 225 258
e 225 259
e 225 260
e 225 261
e 225 262
e 225 263
e 225 264
e 225 265
e 225 266
e 267 268
e 267 269
e 267 270
e 267 271
e 267 272
e 267 273
e 267 274
e 267 275
e 267 276
e 267 277
e 267 278
e 267 279
e 267 280
e 267 281
e 267 282
e 267 283
e 267 284
e 267 285
e 267 286
e 267 287
e 267 288
e 267 289
e 267 290
e 267 291
e 267 292
e 267 293
e 267 294
e 267 295
e 267 296
e 267 297
e 267 298
e 267 299
e 267 300
e 267 301
e 267 302
e 267 303
e 267 304
e 267 305
e 267 306
e 267 307
e 267 308
e 267 309
e 267 310
e 267 311
e 267 312
e 267 313
e 267 314
e 267 315
e 267 316
e 267 317
e 267 318
e 267 319
e 320 321
e 320 322
e 320 323
e 320 324
e 320 325
e 320 326
e 320 327
e 320 328
e 320 329
e 320 330
e 320 331
e 320 332
e 320 333
e 320 334
e 320 335
e 320 336
e 320 337
e 320 338
e 320 339
e 320 340
e 320 341
e 320 342
e 320 343
e 320 344
e 320 345
e 320 346
e 320 347
e 320 348
e 320 349
e 320 350
e 320 351
e 320 352
e 320 353
e 320 354
e 355 356
e 355 357
e 355 358
e 355 359
e 355 360
e 355 361
e 355 362
e 355 363
e 355 364
e 355 365
e 355 366
e 355 367
e 355 368
e 355 369
e 355 370
e 355 371
e 355 372
e 355 373
e 355 374
e 355 375
e 355 376
e 355 377
e 355 378
e 355 379
e 355 380
e 355 381
e 355 382
e 355 383
e 355 384
e 355 385
e 355 386
e 355 387
e 355 388
e 355 389
e 355 390
e 355 391
e 355 392
e 355 393
e 355 394
e 355 395
e 355 396
e 397 398
e 397 399
e 397 400
e 397 401
e 397 402
e 397 403
e 397 404
e 397 405
e 397 406
e 397 407
e 397 408
e 397 409
e 397 410
e 397 411
e 397 412
e 397 413
e 397 414
e 397 415
e 397 416
e 397 417
e 397 418
e 397 419
e 397 420
e 421 422
e 421 423
e 421 424
e 421 425
e 421 426
e 421 427
e 421 428
e 421 429
e 421 430
e 421 431
e 421 432
e 421 433
e 421 434
e 421 435
e 421 436
e 421 437
e 421 438
e 421 439
e 421 440
e 421 441
e 421 442
e 421 443
e 421 444
e 421 445
e 421 446
e 421 447
e 421 448
e 421 449
e 421 450
e 421 451
e 421 452
e 421 453
e 421 454
e 421 455
e 421 456
e 421 457
e 421 458
e 459 460
e 459 461
e 459 462
e 459 463
e 459 464
e 459 465
e 459 466
e 459 467
e 459 468
e 459 469
e 459 470
e 459 471
e 459 472
e 459 473
e 459 474
e 459 475
e 459 476
e 459 477
e 459 478
e 459 479
e 459 480
e 459 481
e 459 482
e 459 483
e 459 484
e 459 485
e 459 486
e 459 487
e 459 488
e 459 489
e 459 490
e 459 491
e 459 492
e 459 493
e 459 494
e 459 495
e 459 496
e 459 497
e 459 498
e 459 499
e 459 500
e 459 501
e 459 502
e 459 503
e 459 504
e 459 505
e 459 506
e 459 507
e 459 508
e 459 509
e 459 510
e 459 511
e 459 512
e 459 513
e 514 515
e 514 516
e 514 517
e 514 518
e 514 519
e 514 520
e 514 521
e 514 522
e 514 523
e 514 524
e 514 525
e 514 526
e 514 527
e 514 528
e 514 529
e 514 530
e 514 531
e 514 532
e 514 533
e 514 534
e 514 535
e 514 536
e 514 537
e 514 538
e 514 539
e 514 540
e 514 541
e 514 542
e 514 543
e 514 544
e 514 545
e 514 546
e 514 547
e 514 548
e 514 549
e 514 550
e 514 551
e 514 552
e 514 553
e 514 554
e 514 555
e 514 556
e 514 557
e 514 558
e 514 559
e 514 560
e 514 561
e 514 562
e 514 563
e 514 564
e 514 565
e 514 566
e 567 568
e 567 569
e 567 570
e 567 571
e 567 572
e 567 573
e 567 574
e 567 575
e 567 576
e 567 577
e 567 578
e 567 579
e 567 580
e 567 581
e 567 582
e 567 583
e 567 584
e 567 585
e 567 586
e 567 587
e 567 588
e 567 589
e 567 590
e 567 591
e 567 592
e 567 593
e 567 594
e 567 595
e 567 596
e 567 597
e 567 598
e 567 599
e 567 600
e 567 601
e 567 602
e 567 603
e 567 604
e 567 605
e 567 606
e 567 607
e 567 608
e 567 609
e 567 610
e 611 612
e 611 613
e 611 614
e 611 615
e 611 616
e 611 617
e 611 618
e 611 619
e 611 620
e 611 621
e 611 622
e 611 623
e 611 624
e 611 625
e 611 626
e 611 627
e 611 628
e 611 629
e 611 630
e 611 631
e 611 632
e 611 633
e 611 634
e 611 635
e 611 636
e 611 637
e 611 638
e 611 639
e 611 640
e 611 641
e 611 642
e 611 643
e 611 644
e 611 645
e 611 646
e 611 647
e 611 648
e 611 649
e 611 650
e 611 651
e 611 652
e 611 653
e 654 655
e 654 656
e 654 657
e 654 658
e 654 659
e 654 660
e 654 661
e 654 662
e 654 663
e 654 664
e 654 665
e 654 666
e 654 667
e 654 668
e 654 669
e 654 670
e 654 671
e 654 672
e 654 673
e 654 674
e 654 675
e 654 676
e 654 677
e 654 678
e 654 679
e 654 680
e 654 681
e 654 682
e 654 683
e 654 684
e 654 685
e 654 686
e 654 687
e 654 688
e 654 689
e 654 690
e 654 691
e 654 692
e 654 693
e 654 694
e 654 695
e 654 696
e 654 697
e 654 698
e 654 699
e 654 700
e 654 701
e 654 702
e 654 703
e 654 704
e 654 705
e 654 706
e 654 707
e 654 708
e 709 710
e 709 711
e 709 712
e 709 713
e 709 714
e 709 715
e 709 716
e 709 717
e 709 718
e 709 719
e 709 720
e 709 721
e 709 722
e 709 723
e 709 724
e 709 725
e 709 726
e 709 727
e 709 728
e 709 729
e 709 730
e 709 731
e 709 732
e 709 733
e 709 734
e 709 735
e 709 736
e 709 737
e 709 738
e 709 739
e 709 740
e 709 741
e 742 743
e 742 744
e 742 745
e 742 746
e 742 747
e 742 748
e 742 749
e 742 750
e 742 751
e 742 752
e 742 753
e 742 754
e 742 755
e 742 756
e 742 757
e 742 758
e 742 759
e 742 760
e 742 761
e 742 762
e 742 763
e 742 764
e 742 765
e 742 766
e 742 767
e 742 768
e 742 769
e 742 770
e 742 771
e 742 772
e 773 774
e 773 775
e 773 776
e 773 777
e 773 778
e 773 779
e 773 780
e 773 781
e 773 782
e 773 783
e 773 784
e 773 785
e 773 786
e 773 787
e 773 788
e 773 789
e 773 790
e 773 791
e 773 792
e 773 793
e 773 794
e 773 795
e 773 796
e 773 797
e 773 798
e 773 799
e 773 800
e 773 801
e 773 802
e 773 803
e 773 804
e 773 805
e 773 806
e 773 807
e 773 808
e 773 809
e 773 810
e 773 811
e 773 812
e 773 813
e 773 814
e 773 815
e 773 816
e 773 817
e 773 818
e 773 819
e 820 821
e 820 822
e 820 823
e 820 824
e 820 825
e 820 826
e 820 827
e 820 828
e 820 829
e 820 830
e 820 831
e 820 832
e 820 833
e 834 835
e 834 836
e 834 837
e 834 838
e 834 839
e 834 840
e 834 841
e 834 842
e 834 843
e 834 844
e 834 845
e 834 846
e 834 847
e 834 848
e 834 849
e 834 850
e 834 851
e 834 852
e 834 853
e 834 854
e 834 855
e 834 856
e 834 857
e 834 858
e 834 859
e 834 860
e 834 861
e 834 862
e 834 863
e 864 865
e 864 866
e 864 867
e 864 868
e 864 869
e 864 870
e 864 871
e 864 872
e 864 873
e 864 874
e 864 875
e 864 876
e 864 877
e 864 878
e 864 879
e 864 880
e 864 881
e 864 882
e 864 883
e 864 884
e 864 885
e 864 886
e 864 887
e 864 888
e 864 889
e 864 890
e 864 891
e 864 892
e 893 894
e 893 895
e 893 896
e 893 897
e 893 898
e 893 899
e 893 900
e 893 901
e 893 902
e 893 903
e 904 905
e 904 906
e 904 907
e 904 908
e 904 909
e 904 910
e 904 911
e 904 912
e 904 913
e 904 914
e 904 915
e 904 916
e 904 917
e 904 918
e 904 919
e 904 920
e 904 921
e 904 922
e 904 923
e 904 924
e 904 925
e 904 926
e 904 927
e 904 928
e 904 929
e 904 930
e 904 931
e 904 932
e 904 933
e 904 934
e 904 935
e 904 936
e 904 937
e 904 938
e 904 939
e 940 941
e 940 942
e 940 943
e 940 944
e 940 945
e 940 946
e 940 947
e 940 948
e 940 949
e 940 950
e 940 951
e 940 952
e 940 953
e 940 954
e 940 955
e 940 956
e 940 957
e 940 958
e 940 959
e 940 960
e 940 961
e 940 962
e 940 963
e 940 964
e 940 965
e 940 966
e 940 967
e 940 968
e 940 969
e 940 970
e 971 972
e 971 973
e 971 974
e 971 975
e 971 976
e 971 977
e 971 978
e 971 979
e 971 980
e 971 981
e 971 982
e 971 983
e 971 984
e 971 985
e 971 986
e 971 987
e 971 988
e 971 989
e 971 990
e 991 992
e 991 993
e 991 994
e 991 995
e 991 996
e 991 997
e 991 998
e 991 999
e 991 1000
e 991 1001
e 991 1002
e 991 1003
e 991 1004
e 991 1005
e 991 1006
e 1007 1008
e 1007 1009
e 1007 1010
e 1007 1011
e 1007 1012
e 1007 1013
e 1007 1014
e 1007 1015
e 1007 1016
e 1007 1017
e 1007 1018
e 1007 1019
e 1007 1020
e 1007 1021
e 1007 1022
e 1007 1023
e 1007 1024
e 1007 1025
e 1007 1026
e 1007 1027
e 1007 1028
e 1007 1029
e 1007 1030
e 1007 1031
e 1007 1032
e 1007 1033
e 1007 1034
e 1007 1035
e 1007 1036
e 1037 1038
e 1037 1039
e 1037 1040
e 1037 1041
e 1037 1042
e 1037 1043
e 1037 1044
e 1037 1045
e 1037 1046
e 1037 1047
e 1037 1048
e 1037 1049
e 1037 1050
e 1051 1052
e 1051 1053
e 1051 1054
e 1051 1055
e 1051 1056
e 1051 1057
e 1051 1058
e 1051 1059
e 1051 1060
e 1051 1061
e 1051 1062
e 1051 1063
e 1051 1064
e 1051 1065
e 1051 1066
e 1051 1067
e 1051 1068
e 1051 1069
e 1051 1070
e 1051 1071
e 1051 1072
e 1051 1073
e 1051 1074
e 1051 1075
e 1051 1076
e 1051 1077
e 1051 1078
e 1051 1079
e 1051 1080
e 1051 1081
e 1051 1082
e 1051 1083
e 1051 1084
e 1051 1085
e 1051 1086
e 1051 1087
e 1051 1088
e 1051 1089
e 1051 1090
e 1051 1091
e 1051 1092
e 1051 1093
e 1051 1094
e 1051 1095
e 1051 1096
e 1051 1097
e 1051 1098
e 1051 1099
e 1051 1100
e 1051 1101
e 1102 1103
e 1102 1104
e 1102 1105
e 1102 1106
e 1102 1107
e 1102 1108
e 1102 1109
e 1102 1110
e 1102 1111
e 1102 1112
e 1102 1113
e 1102 1114
e 1102 1115
e 1102 1116
e 1102 1117
e 1102 1118
e 1102 1119
e 1102 1120
e 1102 1121
e 1102 1122
e 1102 1123
e 1102 1124
e 1102 1125
e 1102 1126
e 1102 1127
e 1102 1128
e 1102 1129
e 1102 1130
e 1131 1132
e 1131 1133
e 1131 1134
e 1131 1135
e 1131 1136
e 1131 1137
e 1131 1138
e 1131 1139
e 1131 1140
e 1131 1141
e 1131 1142
e 1131 1143
e 1131 1144
e 1131 1145
e 1131 1146
e 1131 1147
e 1131 1148
e 1131 1149
e 1131 1150
e 1131 1151
e 1131 1152
e 1131 1153
e 1131 1154
e 1131 1155
e 1131 1156
e 1131 1157
e 1131 1158
e 1131 1159
e 1131 1160
e 1131 1161
e 1131 1162
e 1131 1163
e 1131 1164
e 1131 1165
e 1131 1166
e 1131 1167
e 1131 1168
e 1131 1169
e 1131 1170
e 1131 1171
e 1131 1172
e 1131 1173
e 1131 1174
e 1131 1175
e 1131 1176
e 1131 1177
e 1131 1178
e 1131 1179
e 1180 1181
e 1180 1182
e 1180 1183
e 1180 1184
e 1180 1185
e 1180 1186
e 1180 1187
e 1180 1188
e 1180 1189
e 1180 1190
e 1180 1191
e 1180 1192
e 1180 1193
e 1194 1195
e 1194 1196
e 1194 1197
e 1194 1198
e 1194 1199
e 1194 1200
e 1194 1201
e 1194 1202
e 1194 1203
e 1194 1204
e 1194 1205
e 1194 1206
e 1194 1207
e 1194 1208
e 1194 1209
e 1194 1210
e 1194 1211
e 1194 1212
e 1194 1213
e 1194 1214
e 1194 1215
e 1216 1217
e 1216 1218
e 1216 1219
e 1216 1220
e 1216 1221
e 1216 1222
e 1216 1223
e 1216 1224
e 1216 1225
e 1216 1226
e 1216 1227
e 1216 1228
e 1216 1229
e 1216 1230
e 1216 1231
e 1232 1233
e 1232 1234
e 1232 1235
e 1232 1236
e 1232 1237
e 1232 1238
e 1232 1239
e 1232 1240
e 1232 1241
e 1232 1242
e 1232 1243
e 1232 1244
e 1232 1245
e 1232 1246
e 1232 1247
e 1232 1248
e 1232 1249
e 1232 1250
e 1232 1251
e 1232 1252
e 1232 1253
e 1232 1254
e 1232 1255
e 1232 1256
e 1232 1257
e 1232 1258
e 1232 1259
e 1232 1260
e 1232 1261
e 1232 1262
e 1232 1263
e 1232 1264
e 1232 1265
e 1266 1267
e 1266 1268
e 1266 1269
e 1266 1270
e 1266 1271
e 1266 1272
e 1266 1273
e 1266 1274
e 1266 1275
e 1266 1276
e 1266 1277
e 1266 1278
e 1266 1279
e 1266 1280
e 1266 1281
e 1266 1282
e 1266 1283
e 1266 1284
e 1266 1285
e 1266 1286
e 1266 1287
e 1266 1288
e 1266 1289
e 1266 1290
e 1266 1291
e 1266 1292
e 1266 1293
e 1266 1294
e 1266 1295
e 1266 1296
e 1266 1297
e 1266 1298
e 1266 1299
e 1266 1300
e 1266 1301
e 1266 1302
e 1266 1303
e 1266 1304
e 1266 1305
e 1266 1306
e 1266 1307
e 1266 1308
e 1266 1309
e 1266 1310
e 1266 1311
e 1266 1312
e 1266 1313
e 1266 1314
e 1266 1315
e 1266 1316
e 1266 1317
e 1266 1318
e 1266 1319
e 1266 1320
e 1266 1321
e 1266 1322
e 1323 1324
e 1323 1325
e 1323 1326
e 1323 1327
e 1323 1328
e 1323 1329
e 1323 1330
e 1323 1331
e 1323 1332
e 1323 1333
e 1323 1334
e 1323 1335
e 1323 1336
e 1323 1337
e 1323 1338
e 1323 1339
e 1323 1340
e 1323 1341
e 1323 1342
e 1323 1343
e 1323 1344
e 1323 1345
e 1323 1346
e 1323 1347
e 1323 1348
e 1323 1349
e 1323 1350
e 1323 1351
e 1323 1352
e 1323 1353
e 1323 1354
e 1323 1355
e 1323 1356
e 1323 1357
e 1323 1358
e 1323 1359
e 1323 1360
e 1323 1361
e 1323 1362
e 1323 1363
e 1323 1364
e 1323 1365
e 1323 1366
e 1323 1367
e 1323 1368
e 1323 1369
e 1323 1370
e 1323 1371
e 1372 1373
e 1372 1374
e 1372 1375
e 1372 1376
e 1372 1377
e 1372 1378
e 1372 1379
e 1372 1380
e 1372 1381
e 1372 1382
e 1372 1383
e 1372 1384
e 1372 1385
e 1372 1386
e 1372 1387
e 1372 1388
e 1372 1389
e 1372 1390
e 1372 1391
e 1372 1392
e 1372 1393
e 1394 1395
e 1394 1396
e 1394 1397
e 1394 1398
e 1394 1399
e 1394 1400
e 1394 1401
e 1394 1402
e 1394 1403
e 1394 1404
e 1394 1405
e 1394 1406
e 1394 1407
e 1394 1408
e 1394 1409
e 1394 1410
e 1394 1411
e 1394 1412
e 1394 1413
e 1394 1414
e 1394 1415
e 1394 1416
e 1394 1417
e 1394 1418
e 1394 1419
e 1394 1420
e 1394 1421
e 1394 1422
e 1394 1423
e 1394 1424
e 1394 1425
e 1394 1426
e 1394 1427
e 1394 1428
e 1394 1429
e 1394 1430
e 1394 1431
e 1394 1432
e 1394 1433
e 1394 1434
e 1394 1435
e 1394 1436
e 1394 1437
e 1394 1438
e 1394 1439
e 1394 1440
e 1394 1441
e 1394 1442
e 1394 1443
e 1394 1444
e 1394 1445
e 1394 1446
e 1394 1447
e 1394 1448
e 1394 1449
e 1450 1451
e 1450 1452
e 1450 1453
e 1450 1454
e 1450 1455
e 1450 1456
e 1450 1457
e 1450 1458
e 1450 1459
e 1450 1460
e 1450 1461
e 1450 1462
e 1450 1463
e 1450 1464
e 1450 1465
e 1450 1466
e 1450 1467
e 1450 1468
e 1450 1469
e 1450 1470
e 1450 1471
e 1450 1472
e 1450 1473
e 1450 1474
e 1450 1475
e 1450 1476
e 1450 1477
e 1450 1478
e 1450 1479
e 1450 1480
e 1450 1481
e 1450 1482
e 1450 1483
e 1450 1484
e 1450 1485
e 1450 1486
e 1450 1487
e 1450 1488
e 1450 1489
e 1450 1490
e 1450 1491
e 1450 1492
e 1450 1493
e 1450 1494
e 1450 1495
e 1450 1496
e 1450 1497
e 1450 1498
e 1450 1499
e 1500 1501
e 1500 1502
e 1500 1503
e 1500 1504
e 1500 1505
e 1500 1506
e 1500 1507
e 1500 1508
e 1500 1509
e 1500 1510
e 1500 1511
e 1500 1512
e 1500 1513
e 1500 1514
e 1500 1515
e 1500 1516
e 1500 1517
e 1500 1518
e 1500 1519
e 1520 1521
e 1520 1522
e 1520 1523
e 1520 1524
e 1520 1525
e 1520 1526
e 1520 1527
e 1520 1528
e 1520 1529
e 1520 1530
e 1520 1531
e 1520 1532
e 1520 1533
e 1520 1534
e 1520 1535
e 1520 1536
e 1520 1537
e 1520 1538
e 1520 1539
e 1520 1540
e 1520 1541
e 1520 1542
e 1520 1543
e 1520 1544
e 1520 1545
e 1520 1546
e 1520 1547
e 1520 1548
e 1520 1549
e 1520 1550
e 1520 1551
e 1520 1552
e 1520 1553
e 1520 1554
e 1520 1555
e 1520 1556
e 1520 1557
e 1520 1558
e 1520 1559
e 1520 1560
e 1520 1561
e 1520 1562
e 1563 1564
e 1563 1565
e 1563 1566
e 1563 1567
e 1563 1568
e 1563 1569
e 1563 1570
e 1563 1571
e 1563 1572
e 1563 1573
e 1563 1574
e 1563 1575
e 1563 1576
e 1563 1577
e 1563 1578
e 1563 1579
e 1563 1580
e 1563 1581
e 1563 1582
e 1563 1583
e 1563 1584
e 1563 1585
e 1563 1586
e 1563 1587
e 1563 1588
e 1563 1589
e 1563 1590
e 1563 1591
e 1563 1592
e 1563 1593
e 1594 1595
e 1594 1596
e 1594 1597
e 1594 1598
e 1594 1599
e 1594 1600
e 1594 1601
e 1594 1602
e 1594 1603
e 1594 1604
e 1594 1605
e 1594 1606
e 1594 1607
e 1594 1608
e 1594 1609
e 1594 1610
e 1594 1611
e 1594 1612
e 1594 1613
e 1594 1614
e 1594 1615
e 1594 1616
e 1594 1617
e 1594 1618
e 1594 1619
e 1594 1620
e 1594 1621
e 1594 1622
e 1594 1623
e 1594 1624
e 1594 1625
e 1594 1626
e 1594 1627
e 1594 1628
e 1594 1629
e 1630 1631
e 1630 1632
e 1630 1633
e 1630 1634
e 1630 1635
e 1630 1636
e 1630 1637
e 1630 1638
e 1630 1639
e 1630 1640
e 1630 1641
e 1630 1642
e 1630 1643
e 1630 1644
e 1630 1645
e 1630 1646
e 1630 1647
e 1630 1648
e 1649 1650
e 1649 1651
e 1649 1652
e 1649 1653
e 1649 1654
e 1649 1655
e 1649 1656
e 1649 1657
e 1649 1658
e 1649 1659
e 1649 1660
e 1649 1661
e 1649 1662
e 1649 1663
e 1649 1664
e 1649 1665
e 1649 1666
e 1649 1667
e 1649 1668
e 1649 1669
e 1649 1670
e 1671 1672
e 1671 1673
e 1671 1674
e 1671 1675
e 1671 1676
e 1671 1677
e 1671 1678
e 1671 1679
e 1671 1680
e 1671 1681
e 1671 1682
e 1671 1683
e 1671 1684
e 1671 1685
e 1671 1686
e 1671 1687
e 1671 1688
e 1671 1689
e 1671 1690
e 1671 1691
e 1671 1692
e 1671 1693
e 1671 1694
e 1671 1695
e 1671 1696
e 1671 1697
e 1671 1698
e 1671 1699
e 1671 1700
e 1671 1701
e 1671 1702
e 1671 1703
e 1671 1704
e 1671 1705
e 1671 1706
e 1671 1707
e 1671 1708
e 1671 1709
e 1671 1710
e 1671 1711
e 1671 1712
e 1671 1713
e 1671 1714
e 1671 1715
e 1671 1716
e 1671 1717
e 1718 1719
e 1718 1720
e 1718 1721
e 1718 1722
e 1718 1723
e 1718 1724
e 1718 1725
e 1718 1726
e 1718 1727
e 1718 1728
e 1718 1729
e 1718 1730
e 1731 1732
e 1731 1733
e 1731 1734
e 1731 1735
e 1731 1736
e 1731 1737
e 1731 1738
e 1731 1739
e 1731 1740
e 1731 1741
e 1731 1742
e 1743 1744
e 1743 1745
e 1743 1746
e 1743 1747
e 1743 1748
e 1743 1749
e 1743 1750
e 1743 1751
e 1743 1752
e 1743 1753
e 1743 1754
e 1743 1755
e 1743 1756
e 1743 1757
e 1743 1758
e 1743 1759
e 1743 1760
e 1743 1761
e 1743 1762
e 1743 1763
e 1743 1764
e 1743 1765
e 1743 1766
e 1743 1767
e 1743 1768
e 1743 1769
e 1770 1771
e 1770 1772
e 1770 1773
e 1770 1774
e 1770 1775
e 1770 1776
e 1770 1777
e 1770 1778
e 1770 1779
e 1770 1780
e 1770 1781
e 1770 1782
e 1770 1783
e 1770 1784
e 1770 1785
e 1770 1786
e 1770 1787
e 1770 1788
e 1770 1789
e 1770 1790
e 1770 1791
e 1770 1792
e 1770 1793
e 1770 1794
e 1770 1795
e 1770 1796
e 1770 1797
e 1798 1799
e 1798 1800
e 1798 1801
e 1798 1802
e 1798 1803
e 1798 1804
e 1798 1805
e 1798 1806
e 1798 1807
e 1798 1808
e 1798 1809
e 1798 1810
e 1798 1811
e 1798 1812
e 1798 1813
e 1798 1814
e 1798 1815
e 1798 1816
e 1798 1817
e 1798 1818
e 1798 1819
e 1798 1820
e 1798 1821
e 1798 1822
e 1798 1823
e 1798 1824
e 1798 1825
e 1798 1826
e 1798 1827
e 1798 1828
e 1798 1829
e 1798 1830
e 1798 1831
e 1798 1832
e 1798 1833
e 1798 1834
e 1798 1835
e 1798 1836
e 1798 1837
e 1798 1838
e 1798 1839
e 1798 1840
e 1798 1841
e 1798 1842
e 1798 1843
e 1798 1844
e 1798 1845
e 1798 1846
e 1798 1847
e 1798 1848
e 1798 1849
e 1798 1850
e 1798 1851
e 1798 1852
e 1798 1853
e 1798 1854
e 1798 1855
e 1798 1856
e 1857 1858
e 1857 1859
e 1857 1860
e 1857 1861
e 1857 1862
e 1857 1863
e 1857 1864
e 1857 1865
e 1857 1866
e 1857 1867
e 1857 1868
e 1857 1869
e 1857 1870
e 1857 1871
e 1857 1872
e 1857 1873
e 1857 1874
e 1857 1875
e 1857 1876
e 1857 1877
e 1857 1878
e 1857 1879
e 1857 1880
e 1857 1881
e 1857 1882
e 1857 1883
e 1857 1884
e 1857 1885
e 1857 1886
e 1857 1887
e 1857 1888
e 1857 1889
e 1857 1890
e 1857 1891
e 1857 1892
e 1857 1893
e 1857 1894
e 1857 1895
e 1857 1896
e 1857 1897
e 1857 1898
e 1857 1899
e 1857 1900
e 1857 1901
e 1857 1902
e 1857 1903
e 1857 1904
e 1905 1906
e 1905 1907
e 1905 1908
e 1905 1909
e 1905 1910
e 1905 1911
e 1905 1912
e 1905 1913
e 1905 1914
e 1905 1915
e 1905 1916
e 1905 1917
e 1905 1918
e 1905 1919
e 1905 1920
e 1905 1921
e 1905 1922
e 1905 1923
e 1905 1924
e 1905 1925
e 1905 1926
e 1905 1927
e 1905 1928
e 1905 1929
e 1905 1930
e 1905 1931
e 1905 1932
e 1905 1933
e 1905 1934
e 1905 1935
e 1936 1937
e 1936 1938
e 1936 1939
e 1936 1940
e 1936 1941
e 1936 1942
e 1936 1943
e 1936 1944
e 1936 1945
e 1936 1946
e 1936 1947
e 1936 1948
e 1936 1949
e 1936 1950
e 1936 1951
e 1936 1952
e 1936 1953
e 1936 1954
e 1936 1955
e 1936 1956
e 1936 1957
e 1936 1958
e 1936 1959
e 1936 1960
e 1936 1961
e 1936 1962
e 1936 1963
e 1936 1964
e 1936 1965
e 1936 1966
e 1936 1967
e 1936 1968
e 1936 1969
e 1936 1970
e 1936 1971
e 1936 1972
e 1936 1973
e 1936 1974
e 1936 1975
e 1936 1976
e 1977 1978
e 1977 1979
e 1977 1980
e 1977 1981
e 1977 1982
e 1977 1983
e 1977 1984
e 1977 1985
e 1977 1986
e 1977 1987
e 1977 1988
e 1977 1989
e 1977 1990
e 1977 1991
e 1977 1992
e 1977 1993
e 1977 1994
e 1977 1995
e 1977 1996
e 1977 1997
e 1977 1998
e 1977 1999
e 1977 2000
e 1977 2001
e 1977 2002
e 1977 2003
e 1977 2004
e 1977 2005
e 1977 2006
e 1977 2007
e 1977 2008
e 1977 2009
e 1977 2010
e 1977 2011
e 1977 2012
e 1977 2013
e 1977 2014
e 1977 2015
e 1977 2016
e 1977 2017
e 1977 2018
e 1977 2019
e 1977 2020
e 1977 2021
e 1977 2022
e 2023 2024
e 2023 2025
e 2023 2026
e 2023 2027
e 2023 2028
e 2023 2029
e 2023 2030
e 2023 2031
e 2023 2032
e 2023 2033
e 2023 2034
e 2023 2035
e 2023 2036
e 2023 2037
e 2023 2038
e 2023 2039
e 2023 2040
e 2023 2041
e 2023 2042
e 2023 2043
e 2023 2044
e 2023 2045
e 2023 2046
e 2023 2047
e 2023 2048
e 2023 2049
e 2023 2050
e 2023 2051
e 2023 2052
e 2023 2053
e 2023 2054
e 2023 2055
e 2023 2056
e 2023 2057
e 2023 2058
e 2023 2059
e 2023 2060
e 2023 2061
e 2023 2062
e 2023 2063
e 2023 2064
e 2023 2065
e 2023 2066
e 2023 2067
e 2068 2069
e 2068 2070
e 2068 2071
e 2068 2072
e 2068 2073
e 2068 2074
e 2068 2075
e 2068 2076
e 2068 2077
e 2068 2078
e 2068 2079
e 2068 2080
e 2068 2081
e 2068 2082
e 2068 2083
e 2068 2084
e 2068 2085
e 2068 2086
e 2068 2087
e 2068 2088
e 2068 2089
e 2068 2090
e 2068 2091
e 2068 2092
e 2068 2093
e 2068 2094
e 2068 2095
e 2068 2096
e 2068 2097
e 2068 2098
e 2068 2099
e 2068 2100
e 2068 2101
e 2068 2102
e 2068 2103
e 2068 2104
e 2068 2105
e 2068 2106
e 2068 2107
e 2068 2108
e 2068 2109
e 2068 2110
e 2068 2111
e 2068 2112
e 2113 2114
e 2113 2115
e 2113 2116
e 2113 2117
e 2113 2118
e 2113 2119
e 2113 2120
e 2113 2121
e 2113 2122
e 2113 2123
e 2113 2124
e 2113 2125
e 2113 2126
e 2113 2127
e 2113 2128
e 2113 2129
e 2113 2130
e 2113 2131
e 2113 2132
e 2113 2133
e 2113 2134
e 2113 2135
e 2113 2136
e 2113 2137
e 2113 2138
e 2113 2139
e 2113 2140
e 2113 2141
e 2113 2142
e 2113 2143
e 2113 2144
e 2113 2145
e 2113 2146
e 2113 2147
e 2113 2148
e 2113 2149
e 2113 2150
e 2113 2151
e 2113 2152
e 2113 2153
e 2154 2155
e 2154 2156
e 2154 2157
e 2154 2158
e 2154 2159
e 2154 2160
e 2154 2161
e 2154 2162
e 2154 2163
e 2154 2164
e 2165 2166
e 2165 2167
e 2165 2168
e 2165 2169
e 2165 2170
e 2165 2171
e 2165 2172
e 2165 2173
e 2165 2174
e 2165 2175
e 2165 2176
e 2165 2177
e 2165 2178
e 2165 2179
e 2165 2180
e 2165 2181
e 2165 2182
e 2165 2183
e 2165 2184
e 2165 2185
e 2165 2186
e 2165 2187
e 2165 2188
e 2165 2189
e 2165 2190
e 2165 2191
e 2165 2192
e 2165 2193
e 2165 2194
e 2165 2195
e 2165 2196
e 2165 2197
e 2165 2198
e 2165 2199
e 2165 2200
e 2165 2201
e 2165 2202
e 2165 2203
e 2165 2204
e 2165 2205
e 2165 2206
e 2165 2207
e 2165 2208
e 2165 2209
e 2165 2210
e 2165 2211
e 2165 2212
e 2165 2213
e 2165 2214
e 2165 2215
e 2165 2216
e 2165 2217
e 2165 2218
e 2165 2219
e 2165 2220
e 2165 2221
e 2165 2222
e 2165 2223
e 2165 2224
e 2165 2225
e 2226 2227
e 2226 2228
e 2226 2229
e 2226 2230
e 2226 2231
e 2226 2232
e 2226 2233
e 2226 2234
e 2226 2235
e 2226 2236
e 2226 2237
e 2226 2238
e 2226 2239
e 2226 2240
e 2226 2241
e 2226 2242
e 2226 2243
e 2226 2244
e 2226 2245
e 2226 2246
e 2226 2247
e 2226 2248
e 2226 2249
e 2226 2250
e 2226 2251
e 2226 2252
e 2226 2253
e 2226 2254
e 2226 2255
e 2226 2256
e 2226 2257
e 2226 2258
e 2226 2259
e 2226 2260
e 2226 2261
e 2226 2262
e 2226 2263
e 2226 2264
e 2226 2265
e 2266 2267
e 2266 2268
e 2266 2269
e 2266 2270
e 2266 2271
e 2266 2272
e 2266 2273
e 2266 2274
e 2266 2275
e 2266 2276
e 2266 2277
e 2266 2278
e 2266 2279
e 2266 2280
e 2266 2281
e 2266 2282
e 2266 2283
e 2266 2284
e 2266 2285
e 2266 2286
e 2266 2287
e 2266 2288
e 2266 2289
e 2266 2290
e 2266 2291
e 2266 2292
e 2266 2293
e 2266 2294
e 2266 2295
e 2266 2296
e 2266 2297
e 2266 2298
e 2266 2299
e 2266 2300
e 2266 2301
e 2266 2302
e 2266 2303
e 2266 2304
e 2266 2305
e 2266 2306
e 2266 2307
e 2266 2308
e 2266 2309
e 2266 2310
e 2266 2311
e 2312 2313
e 2312 2314
e 2312 2315
e 2312 2316
e 2312 2317
e 2312 2318
e 2312 2319
e 2312 2320
e 2312 2321
e 2312 2322
e 2312 2323
e 2324 2325
e 2324 2326
e 2324 2327
e 2324 2328
e 2324 2329
e 2324 2330
e 2324 2331
e 2324 2332
e 2324 2333
e 2324 2334
e 2324 2335
e 2324 2336
e 2324 2337
e 2324 2338
e 2324 2339
e 2340 2341
e 2340 2342
e 2340 2343
e 2340 2344
e 2340 2345
e 2340 2346
e 2340 2347
e 2340 2348
e 2340 2349
e 2340 2350
e 2340 2351
e 2340 2352
e 2340 2353
e 2340 2354
e 2340 2355
e 2340 2356
e 2340 2357
e 2340 2358
e 2340 2359
e 2340 2360
e 2340 2361
e 2340 2362
e 2340 2363
e 2340 2364
e 2340 2365
e 2340 2366
e 2340 2367
e 2340 2368
e 2340 2369
e 2340 2370
e 2340 2371
e 2340 2372
e 2340 2373
e 2340 2374
e 2340 2375
e 2340 2376
e 2340 2377
e 2340 2378
e 2340 2379
e 2340 2380
e 2340 2381
e 2340 2382
e 2340 2383
e 2340 2384
e 2340 2385
e 2340 2386
e 2340 2387
e 2340 2388
e 2340 2389
e 2340 2390
e 2340 2391
e 2340 2392
e 2340 2393
e 2394 2395
e 2394 2396
e 2394 2397
e 2394 2398
e 2394 2399
e 2394 2400
e 2394 2401
e 2394 2402
e 2394 2403
e 2394 2404
e 2394 2405
e 2394 2406
e 2394 2407
e 2394 2408
e 2394 2409
e 2394 2410
e 2394 2411
e 2394 2412
e 2394 2413
e 2394 2414
e 2394 2415
e 2394 2416
e 2394 2417
e 2394 2418
e 2394 2419
e 2394 2420
e 2394 2421
e 2394 2422
e 2394 2423
e 2394 2424
e 2394 2425
e 2394 2426
e 2394 2427
e 2394 2428
e 2394 2429
e 2394 2430
e 2394 2431
e 2394 2432
e 2394 2433
e 2394 2434
e 2394 2435
e 2394 2436
e 2394 2437
e 2394 2438
e 2394 2439
e 2394 2440
e 2394 2441
e 2394 2442
e 2394 2443
e 2394 2444
e 2394 2445
e 2394 2446
e 2394 2447
e 2394 2448
e 2394 2449
e 2394 2450
